NAME: eil51.tour
TYPE: TOUR
DIMENSION: 51
COMMENT: best tour cost = 505.77
TOUR_SECTION 

47
12
46
51
27
1
32
11
38
5
49
9
50
16
2
29
21
34
30
10
39
33
45
15
44
37
17
4
18
14
25
13
41
19
42
40
6
48
8
26
31
28
3
20
35
36
22
7
23
24
43
-47
